p tw 450 1681
0 1
0 2
0 137
0 190
0 343
0 396
0 138
1 2
1 343
1 344
1 396
2 137
2 190
2 296
3 4
3 5
3 6
3 156
3 244
3 426
3 265
3 50
4 5
4 6
4 251
4 252
4 265
4 426
4 266
5 6
5 49
5 50
5 51
5 433
5 244
6 251
6 252
6 49
6 433
6 354
7 8
7 9
7 10
7 210
7 211
7 231
7 448
7 441
8 9
8 10
8 210
8 211
8 369
8 425
8 447
9 10
9 228
9 230
9 231
9 448
9 229
10 229
10 446
10 447
10 425
10 228
11 12
11 13
11 14
11 24
11 402
12 13
12 14
12 24
12 165
12 166
12 23
13 14
13 165
13 166
13 268
13 374
13 269
14 269
14 359
14 402
14 268
15 16
15 17
15 378
15 395
15 95
16 17
16 107
16 108
16 94
16 95
16 378
17 107
17 108
17 305
18 19
18 20
18 21
18 375
18 376
18 377
18 421
18 38
19 20
19 21
19 103
19 264
19 38
19 376
19 39
20 21
20 101
20 102
20 34
20 103
20 264
21 101
21 102
21 377
21 421
21 120
22 23
22 24
22 99
22 394
22 356
23 24
23 165
23 356
23 357
23 394
24 165
25 26
25 27
25 28
25 57
25 59
25 60
25 63
25 55
26 27
26 28
26 61
26 62
26 63
26 149
26 60
27 28
27 171
27 172
27 68
27 149
27 61
28 171
28 172
28 55
28 57
28 334
29 30
29 31
29 32
29 262
29 263
29 278
29 398
29 423
30 31
30 32
30 234
30 258
30 260
30 170
30 96
31 32
31 168
31 170
31 423
31 234
31 398
32 262
32 263
32 96
32 97
32 260
33 34
33 35
33 36
33 133
33 134
33 103
33 245
33 399
34 35
34 36
34 102
34 103
34 245
34 381
35 36
35 78
35 381
35 407
35 102
35 424
36 133
36 134
36 218
36 424
36 407
37 38
37 39
37 40
37 83
37 353
37 175
37 382
37 355
38 39
38 40
38 86
38 376
38 264
39 40
39 82
39 83
39 264
39 353
40 86
40 88
40 355
40 382
40 376
41 42
41 43
41 44
41 416
41 194
42 43
42 44
42 91
42 195
42 248
42 290
42 93
43 44
43 416
43 248
43 290
43 317
44 193
44 194
44 195
44 91
45 46
45 47
45 48
45 227
45 228
45 229
45 446
45 272
46 47
46 48
46 310
46 386
46 311
46 446
46 229
47 48
47 158
47 272
47 273
47 368
47 227
48 310
48 386
48 273
48 368
48 366
49 50
49 51
49 417
49 433
49 438
50 51
50 315
50 243
50 244
51 315
51 417
52 53
52 54
52 59
52 242
52 240
53 54
53 58
53 72
53 57
53 59
53 242
54 58
54 72
54 330
55 56
55 57
55 58
55 333
55 334
55 172
56 57
56 58
56 72
56 73
56 333
56 334
56 219
57 58
57 59
57 60
58 72
58 73
58 59
59 60
59 242
59 239
60 63
60 239
60 242
60 282
61 62
61 63
61 147
61 148
61 149
61 215
62 63
62 196
62 214
62 215
62 282
62 148
63 214
63 282
63 239
64 65
64 66
64 67
64 74
64 75
64 106
64 163
64 431
65 66
65 67
65 79
65 132
65 188
65 189
65 420
66 67
66 419
66 420
66 431
66 74
66 188
67 106
67 163
67 79
67 132
67 81
68 69
68 70
68 71
68 149
68 171
68 147
68 345
69 70
69 71
69 303
69 358
69 345
69 346
69 171
70 71
70 303
70 304
70 324
70 358
70 130
71 130
71 324
71 111
71 147
71 149
72 73
72 330
72 331
73 330
73 331
73 219
73 221
73 333
74 75
74 76
74 77
74 106
74 266
74 431
75 76
75 77
75 104
75 105
75 106
75 185
76 77
76 265
76 266
76 267
76 431
76 184
77 183
77 184
77 185
77 105
77 267
78 79
78 80
78 81
78 380
78 381
78 407
78 164
79 80
79 81
79 131
79 132
79 163
80 81
80 131
80 132
80 380
80 381
80 117
81 162
81 163
81 164
81 407
82 83
82 84
82 85
82 264
82 103
82 245
82 399
83 84
83 85
83 264
83 353
83 255
84 85
84 139
84 142
84 255
84 353
84 254
85 139
85 335
85 399
85 142
85 245
86 87
86 88
86 89
86 355
86 375
86 376
87 88
87 89
87 99
87 100
87 394
87 356
87 293
88 89
88 355
88 356
88 357
88 394
89 375
89 376
89 292
89 293
89 100
90 91
90 92
90 93
90 237
90 238
90 114
90 115
90 246
91 92
91 93
91 195
91 248
91 392
92 93
92 237
92 238
92 360
92 392
92 195
93 246
93 247
93 248
93 114
94 95
94 96
94 97
94 107
94 259
94 298
94 260
95 96
95 97
95 150
95 378
95 107
96 97
96 263
96 259
96 260
97 150
97 152
97 263
97 378
98 99
98 100
98 212
98 213
98 293
99 100
99 394
100 213
100 293
100 394
101 102
101 380
101 381
101 117
101 120
101 421
102 103
102 380
102 381
103 245
103 264
104 105
104 106
104 256
104 257
104 162
104 390
104 163
105 106
105 256
105 257
105 185
105 192
106 163
106 162
107 108
107 259
107 298
107 319
108 305
108 318
108 319
108 298
109 110
109 111
109 112
109 232
109 233
109 148
109 215
109 147
110 111
110 112
110 129
110 130
110 191
110 192
110 256
111 112
111 129
111 130
111 147
111 148
112 191
112 192
112 232
112 233
112 224
113 114
113 115
113 116
113 250
113 276
113 379
113 249
113 246
114 115
114 116
114 237
114 246
114 276
115 116
115 237
115 287
115 372
115 314
116 249
116 250
116 313
116 314
116 372
117 118
117 119
117 120
117 380
117 131
117 299
118 119
118 120
118 351
118 421
118 207
118 208
118 283
119 120
119 131
119 299
119 207
119 208
119 300
120 351
120 421
120 380
121 122
121 123
121 124
121 177
121 400
121 418
121 354
121 144
122 123
122 124
122 225
122 226
122 274
122 275
122 186
123 124
123 225
123 226
123 143
123 144
123 400
124 274
124 275
124 251
124 354
124 418
125 126
125 127
125 128
125 207
125 283
125 383
125 405
125 350
126 127
126 128
126 207
126 208
126 209
126 283
126 422
127 128
127 209
127 422
127 341
127 342
127 411
128 341
128 342
128 383
128 385
128 405
129 130
129 256
129 257
129 329
129 192
129 324
130 324
130 147
130 329
131 132
131 189
131 299
131 380
132 189
132 299
132 188
133 134
133 335
133 336
133 399
133 245
133 217
134 216
134 217
134 218
134 424
134 336
135 136
135 137
135 138
135 181
135 294
135 295
135 145
135 190
136 137
136 138
136 409
136 410
136 145
136 294
136 143
137 138
137 190
137 396
137 295
138 409
138 410
138 396
138 411
139 140
139 141
139 142
139 335
139 399
139 230
140 141
140 142
140 227
140 272
140 230
140 335
140 228
141 142
141 227
141 272
141 160
141 254
141 158
142 160
142 254
142 255
143 144
143 145
143 146
143 225
143 409
143 326
144 145
144 146
144 225
144 400
144 401
145 146
145 294
145 409
145 364
146 363
146 364
146 401
146 294
146 400
147 148
147 149
148 149
148 215
148 232
149 171
150 151
150 152
150 153
150 263
150 378
150 395
151 152
151 153
151 279
151 309
151 312
151 397
151 427
152 153
152 263
152 279
152 309
152 262
153 397
153 427
153 395
153 378
154 155
154 156
154 157
154 243
154 244
154 204
154 205
154 436
155 156
155 157
155 313
155 314
155 204
155 436
155 372
156 157
156 243
156 244
156 426
156 340
157 313
157 314
157 339
157 340
157 426
158 159
158 160
158 161
158 272
158 273
158 442
159 160
159 161
159 327
159 444
159 273
159 442
159 443
160 161
160 253
160 254
160 272
161 253
161 327
161 328
161 254
161 444
162 163
162 164
162 257
162 390
162 388
163 164
164 388
164 407
164 424
164 390
165 166
165 356
165 357
165 432
166 174
166 374
166 432
166 357
166 268
167 168
167 169
167 170
167 333
167 334
167 347
167 348
167 172
168 169
168 170
168 347
168 348
168 423
168 371
169 170
169 222
169 234
169 333
169 334
169 219
170 222
170 234
170 423
171 172
171 345
171 347
172 345
172 347
172 334
173 174
173 175
173 176
173 253
173 254
173 255
173 353
173 328
174 175
174 176
174 382
174 432
174 373
174 374
175 176
175 353
175 382
175 432
175 255
176 328
176 373
176 429
176 374
176 253
177 178
177 179
177 400
177 401
177 418
177 438
178 179
178 400
178 401
178 363
179 417
179 438
179 418
180 181
180 182
180 295
180 297
180 449
181 182
181 294
181 295
181 364
181 297
182 363
182 364
182 294
183 184
183 185
183 191
183 223
183 224
183 192
183 339
184 185
184 267
184 339
184 340
184 223
185 192
185 256
185 191
186 187
186 188
186 189
186 275
186 420
186 226
186 325
187 188
187 189
187 299
187 300
187 226
187 325
187 308
188 189
188 275
188 420
189 299
189 300
190 295
190 296
190 297
191 192
191 223
191 224
191 233
192 256
193 194
193 195
193 392
193 393
193 413
193 412
194 195
194 413
195 392
195 393
196 197
196 198
196 199
196 214
196 215
196 203
196 232
197 198
197 199
197 246
197 247
197 276
197 379
197 289
198 199
198 215
198 232
198 233
198 379
198 276
199 203
199 214
199 201
199 289
199 247
200 201
200 202
200 203
200 214
200 282
200 241
200 408
200 239
201 202
201 203
201 316
201 317
201 289
201 290
202 203
202 316
202 317
202 241
202 408
203 214
203 282
203 289
204 205
204 206
204 243
204 435
204 436
205 206
205 243
205 315
206 435
206 436
206 434
207 208
207 209
207 283
207 351
208 209
208 300
208 308
208 299
209 300
209 308
209 422
209 338
210 211
210 301
210 440
210 441
210 370
210 448
211 369
211 370
211 371
211 440
211 425
212 213
212 384
212 406
212 291
213 291
213 292
213 293
213 406
214 215
214 282
215 232
216 217
216 218
216 441
216 448
216 302
216 389
216 301
217 218
217 441
217 448
217 336
217 231
218 424
218 388
218 389
218 302
219 220
219 221
219 222
219 333
219 331
220 221
220 222
220 235
220 236
220 234
220 258
220 261
221 222
221 235
221 236
221 331
221 439
222 234
222 333
222 258
223 224
223 249
223 250
223 313
223 339
224 249
224 250
224 233
224 379
225 226
225 325
225 326
225 409
226 325
226 326
226 275
227 228
227 229
227 272
227 230
228 229
228 230
228 231
229 446
229 447
230 231
230 335
230 336
231 335
231 336
231 448
232 233
232 379
233 379
233 250
234 258
234 260
235 236
235 307
235 415
235 331
235 439
236 261
236 306
236 307
236 415
236 258
237 238
237 287
237 288
237 372
238 287
238 288
238 360
238 392
238 361
239 240
239 241
239 242
239 282
240 241
240 242
240 408
241 242
241 408
241 282
243 244
243 315
244 315
244 426
245 264
245 399
246 247
246 248
246 276
247 248
247 276
247 289
247 290
248 289
248 290
249 250
249 313
249 314
249 339
250 276
250 379
251 252
251 274
251 354
251 419
251 433
252 274
252 419
252 266
252 431
252 265
253 254
253 255
253 327
253 328
254 255
255 353
256 257
256 329
257 329
257 387
257 390
258 259
258 260
258 261
259 260
259 261
259 298
259 306
260 261
261 306
261 307
261 298
262 263
262 277
262 278
262 279
262 398
263 279
265 266
265 267
265 340
265 426
266 267
266 431
266 419
267 339
267 340
267 426
268 269
268 270
268 271
268 373
268 374
269 270
269 271
269 352
269 359
269 402
270 271
270 373
270 374
270 321
270 429
270 323
271 323
271 337
271 352
271 359
271 321
272 273
273 368
273 365
273 442
274 275
274 354
274 419
274 420
275 419
275 420
276 379
277 278
277 279
277 425
277 447
277 309
277 311
277 446
278 279
278 398
278 369
278 425
278 447
279 309
279 311
280 281
280 352
280 359
280 402
281 352
281 359
281 337
283 349
283 350
283 351
283 405
284 285
284 286
284 327
284 428
284 444
284 443
284 322
285 286
285 443
285 444
285 430
286 320
286 322
286 428
287 288
287 372
287 434
287 435
287 436
288 434
288 435
288 361
288 360
289 290
289 317
290 317
290 416
291 292
291 293
291 349
291 350
291 405
291 406
292 293
292 349
292 375
292 377
292 350
293 375
294 295
294 364
295 296
295 297
296 297
296 449
297 449
298 306
298 319
298 445
299 300
300 308
300 325
301 302
301 303
301 304
301 358
301 440
301 441
302 303
302 304
302 387
302 389
302 441
303 304
303 324
303 358
303 440
304 324
304 387
304 389
304 329
305 318
305 319
305 332
306 307
306 319
306 445
306 414
307 414
307 415
307 445
308 325
308 326
308 338
308 422
309 310
309 311
309 312
309 397
310 311
310 312
310 386
310 391
310 446
311 312
311 446
311 447
312 386
312 391
312 397
312 403
313 314
313 339
313 340
314 372
314 436
316 317
316 416
316 408
317 416
318 319
318 332
318 437
318 445
319 445
319 437
320 321
320 322
320 323
320 337
321 322
321 323
321 373
321 429
321 428
322 323
322 428
322 429
323 337
323 352
324 329
324 387
325 326
325 338
326 338
326 409
326 410
327 328
327 428
327 429
327 444
328 428
328 429
328 373
329 387
329 390
330 331
330 439
331 439
332 437
333 334
334 347
335 336
335 399
336 399
336 448
337 352
338 410
338 411
338 422
338 409
339 340
340 426
341 342
341 343
341 344
341 385
341 383
342 343
342 344
342 411
342 422
342 396
343 344
343 396
343 411
344 385
345 346
345 347
345 348
345 358
346 347
346 348
346 370
346 371
346 358
346 440
347 348
348 371
348 423
348 370
349 350
349 351
349 375
349 377
349 421
350 351
350 405
350 406
351 421
351 377
352 359
353 382
354 418
354 433
354 438
355 356
355 357
355 382
355 432
356 357
356 394
357 382
357 432
358 440
358 370
359 402
360 361
360 362
360 392
360 393
361 362
361 434
362 392
362 393
362 412
363 364
363 401
364 401
365 366
365 367
365 368
365 430
365 442
365 443
366 367
366 368
366 404
366 386
366 391
367 368
367 430
367 404
368 442
368 386
369 370
369 371
369 398
369 425
369 423
370 371
370 440
371 423
371 398
372 435
372 436
373 374
373 429
374 432
375 376
375 377
376 377
377 421
378 395
380 381
381 407
382 432
383 384
383 385
383 405
383 406
384 385
384 405
384 406
386 391
386 404
387 388
387 389
387 390
388 389
388 390
388 407
388 424
389 390
389 424
391 403
391 404
391 397
392 393
393 412
393 413
395 427
396 410
396 411
397 427
397 403
398 425
398 423
400 401
400 418
403 404
403 427
405 406
407 424
409 410
410 411
410 422
411 422
412 413
414 415
414 445
414 437
415 439
417 438
417 433
418 438
418 433
419 420
419 431
420 431
425 447
428 429
428 444
430 442
430 443
433 438
434 435
435 436
437 445
440 441
441 448
442 443
442 444
443 444
446 447
